GLPSOL: GLPK LP/MIP Solver, v4.55
Parameter(s) specified in the command line:
 -m tmp.mod
Reading model section from tmp.mod...
Reading data section from tmp.mod...
4201 lines were read
Generating obj...
Generating kirhoff...
Generating init_charge...
Generating batt_size...
Model has been successfully generated
GLPK Simplex Optimizer, v4.55
4063 rows, 7188 columns, 14338 non-zeros
Preprocessing...
3297 rows, 7047 columns, 14141 non-zeros
Scaling...
 A: min|aij| =  1.000e+00  max|aij| =  1.000e+00  ratio =  1.000e+00
Problem data seem to be well scaled
Constructing initial basis...
Size of triangular part is 2586
      0: obj =   0.000000000e+00  infeas =  7.000e+02 (711)
    500: obj =   5.000000000e+00  infeas =  3.970e+02 (419)
*   900: obj =   1.700000000e+01  infeas =  0.000e+00 (305)
*   958: obj =   0.000000000e+00  infeas =  0.000e+00 (302)
OPTIMAL LP SOLUTION FOUND
Time used:   0.2 secs
Memory used: 14.1 Mb (14775140 bytes)
#OUTPUT:
0
-12 -9 -1 -3 0 -1 -1 -2 0 -3 4 0 0 0 0 0 -6 -3 -1 1 0 0 0 -1 -3 0 -1 -20 0 0 4 -3 0 -5 2 -11 0 0 3 0 0 0 9 3 0 0 0 0 7 0 3 1 0 0 -6 0 0 4 0 0 0 0 0 -1 0 0 0 0 0 0 0 0 0 1 3 0 0 0 0 0 9 0 0 0 0 -1 0 0 0 0 0 -1 0 0 0 0 0 -19 0 0 3 0 0 0 0 0 0 0 4 0 -1 3 0 0 -19 0 0 0 0 -2 0 2 0 0 0 0 0 0 0 0 0 0 0 0 6 0 -19 0 0 0 0 0 0 -3 -1 0 0 0 0 0 0 0 0 0 3 4 0 0 0 0 0 0 0 0 0 0 0 0 0 0 0 0 3 0 -6 0 0 0 0 0 0 -5 -1 3 0 0 0 -19 0 0 0 0 0 1 0 -19 0 0 5 0 0 0 0 -5 11 0 0 1 0 0 0 0 0 -6 -3 0 2 0 0 2 -1 0 0 0 -15 9 0 0 3 0 -7 3 0 0 0 6 0 0 1 -3 0 0 0 -1 0 0 5 0 0 0 0 0 0 0 0 0 0 0 0 0 0 0 0 0 0 0 0 0 0 0 0 0 0 
-7 -5 0 0 -2 0 -2 0 0 0 0 0 0 0 0 -5 -1 0 0 0 0 0 0 0 0 0 0 0 0 0 0 0 0 0 0 0 0 0 0 0 0 0 1 3 0 -5 0 -1 0 0 0 0 0 0 0 3 0 0 -2 0 0 0 0 0 0 0 0 0 3 0 0 0 0 0 0 0 0 0 0 0 1 0 0 0 0 0 0 0 0 0 0 0 0 0 0 0 0 0 0 0 0 0 0 0 0 0 0 0 0 0 0 0 0 0 0 0 0 0 0 0 0 0 0 0 0 0 0 0 0 0 0 0 0 0 0 0 0 0 0 0 0 0 0 0 0 0 0 0 0 0 0 0 0 0 0 0 0 0 0 -3 0 0 0 0 0 0 0 0 0 0 0 0 0 0 0 0 0 0 0 0 0 0 0 0 0 0 0 0 0 0 0 0 -2 0 0 0 0 0 0 0 0 0 0 0 0 1 0 0 0 0 -3 0 0 0 0 0 0 0 0 0 0 0 0 0 -1 1 0 0 0 0 -3 3 3 0 0 0 0 0 0 0 0 0 2 0 0 0 0 0 0 0 0 0 0 0 0 0 0 0 0 0 0 0 0 0 0 0 0 0 0 0 0 0 0 
-11 -9 -1 -3 0 0 -1 -5 0 0 4 0 -1 0 -1 0 -13 0 -1 0 0 0 0 0 0 0 1 -10 0 0 4 -9 0 2 2 0 0 0 0 0 -1 0 13 0 0 0 1 0 -7 0 0 4 0 0 -9 0 0 0 0 0 3 0 0 -2 0 0 0 -1 0 0 0 0 0 4 2 -13 0 2 0 0 10 0 0 0 0 1 -20 1 0 0 0 0 0 3 0 0 0 0 0 0 0 0 0 0 0 0 0 0 0 0 1 2 0 0 0 0 0 0 0 -2 0 0 -13 0 0 0 0 0 0 0 0 0 0 0 5 0 0 0 1 0 0 0 0 0 0 0 0 0 0 0 0 0 0 0 2 0 0 0 0 0 0 0 -3 0 0 0 0 0 0 0 0 0 2 0 -9 0 1 0 0 0 0 -1 0 2 0 0 0 0 0 0 0 0 0 0 0 0 0 0 0 0 0 0 0 -1 0 0 0 2 0 1 0 -2 0 -9 0 0 -1 0 0 2 0 0 0 0 -14 9 0 0 0 0 0 0 0 3 0 9 0 0 0 -2 0 0 0 0 1 0 1 0 0 0 0 0 0 0 0 0 0 0 0 0 0 0 0 0 0 0 0 0 0 0 0 0 0 
-1 -1 0 0 0 0 0 0 0 0 0 0 0 0 0 0 -9 0 0 0 0 0 0 0 0 0 0 0 0 0 0 0 0 -9 0 0 0 0 0 0 0 0 9 0 0 0 0 0 0 0 0 0 0 0 0 0 0 1 0 0 0 0 0 0 0 0 0 0 0 0 0 0 0 0 0 -8 0 0 0 0 9 0 0 0 0 0 0 0 0 0 0 0 0 0 0 0 0 0 0 0 0 0 0 0 0 0 0 0 1 0 0 0 0 0 0 0 0 0 0 0 0 0 0 0 0 0 0 0 0 0 0 0 0 0 0 0 0 0 0 0 0 0 0 0 0 0 0 0 0 0 0 0 0 0 0 1 0 0 0 0 0 0 0 0 0 -8 0 0 0 0 0 0 0 0 0 0 0 0 0 0 0 0 0 0 0 0 -8 0 0 0 0 0 0 0 0 0 0 0 0 0 0 -10 0 0 0 0 0 0 0 0 0 0 0 0 0 0 0 0 0 0 0 0 0 0 -9 9 0 0 0 0 -1 0 0 0 0 0 0 0 0 0 0 0 0 0 0 0 0 0 0 0 0 0 0 0 0 0 0 0 0 0 0 0 0 0 0 0 0 0 0 0 0 0 0 
-9 -5 0 -1 -2 0 -3 -3 0 0 0 -1 0 -13 0 5 -1 -3 0 0 3 -3 -1 0 0 0 0 -5 1 -1 3 -5 1 0 0 0 0 0 0 2 -1 0 2 0 0 2 0 -1 0 0 -8 0 -1 0 0 2 3 0 -2 0 0 0 0 0 0 -10 0 -1 2 0 0 0 0 11 0 0 0 0 0 0 2 -2 0 0 0 0 0 -1 0 0 0 0 0 0 0 0 0 0 0 0 -8 0 0 0 0 0 0 0 0 0 0 0 2 0 0 0 0 -1 0 0 0 0 0 0 0 -1 0 0 0 0 0 0 0 0 11 0 0 0 -1 0 0 0 0 0 0 0 0 0 0 -1 0 0 0 0 0 0 0 0 0 -5 0 0 0 0 0 0 0 0 0 0 0 0 0 0 0 0 0 0 0 0 0 0 0 0 0 0 0 0 0 0 0 0 -2 0 0 0 0 0 0 0 0 0 0 0 0 1 -1 0 -3 0 -2 0 2 0 8 0 0 0 2 0 0 -1 1 0 -14 3 1 0 0 -13 0 0 5 0 0 0 0 0 0 0 0 0 2 0 0 0 0 0 0 0 0 0 0 0 0 0 0 0 0 0 0 0 0 0 0 0 0 0 0 0 0 0 0 
-10 -8 -1 0 0 -1 -1 -5 -2 0 0 0 0 0 0 0 0 -3 0 0 -2 0 0 -1 0 -1 1 -16 0 0 0 -15 0 0 0 0 0 0 0 0 0 0 0 3 0 0 0 -1 -4 0 0 0 0 0 -2 0 -2 0 -1 0 0 0 0 0 0 0 0 0 0 0 0 0 0 0 3 0 0 0 0 0 0 0 0 -2 0 1 0 0 0 0 0 0 0 0 0 0 0 0 0 0 3 0 0 0 3 0 0 0 0 0 1 3 0 0 0 0 0 0 0 -2 0 1 0 0 0 0 0 0 0 0 0 0 0 0 0 0 0 0 0 0 0 0 0 0 0 0 0 0 0 0 0 0 0 0 3 0 0 0 0 -14 0 0 0 0 0 0 0 0 0 0 0 0 3 0 4 0 0 0 0 0 0 0 0 3 0 0 0 0 0 0 0 0 -1 1 0 0 0 0 0 0 0 0 0 0 0 1 0 0 0 0 0 0 0 -2 -3 -3 -1 0 0 2 0 0 0 0 0 0 0 0 0 0 -3 3 14 0 0 -4 0 0 0 -3 0 0 1 -1 0 0 0 0 0 0 0 0 0 0 0 0 0 0 0 0 0 0 0 0 0 0 0 0 0 0 0 0 0 
-5 -2 0 -3 -2 0 -2 0 0 0 4 0 0 0 0 -5 0 0 0 0 3 0 -1 0 -3 0 0 -5 0 0 4 -3 0 0 0 0 0 0 -4 0 0 0 0 0 0 0 0 0 0 0 -7 0 -7 0 0 0 3 0 0 0 0 0 0 0 0 0 0 0 0 0 0 0 0 11 0 0 0 0 0 0 0 -8 0 0 0 0 0 0 0 0 0 0 0 0 0 2 0 0 0 0 -7 0 0 0 0 0 -2 0 0 0 0 0 0 0 0 0 0 0 0 0 0 0 0 0 0 0 0 0 0 0 0 0 0 0 11 0 0 0 0 0 0 0 0 -3 0 0 0 0 0 0 0 0 0 0 0 0 0 0 0 -3 0 0 0 0 0 0 0 0 0 0 0 0 0 0 0 -13 0 0 0 0 0 0 0 0 0 -9 0 0 0 0 0 0 0 0 0 0 0 0 0 0 0 0 0 0 0 0 -1 0 0 0 0 0 8 0 7 0 -2 0 0 0 0 0 0 0 -11 0 0 0 -6 0 0 0 3 0 0 0 0 2 -2 0 -2 0 0 0 0 0 0 0 0 0 0 0 0 0 0 0 0 0 0 0 0 0 0 0 0 0 0 0 0 0 0 0 0 
-9 -3 -1 -1 -1 1 0 2 0 0 0 0 0 0 0 0 -8 2 0 1 0 0 0 -1 0 0 0 -2 0 0 0 0 0 -9 2 4 0 0 0 0 -3 0 11 0 0 0 0 1 0 0 0 0 0 0 0 0 0 4 0 0 1 0 0 0 0 -1 0 0 0 0 0 0 0 0 3 0 0 0 0 -13 10 0 0 0 0 0 0 1 0 0 -3 0 0 1 0 0 0 0 0 0 0 0 0 0 0 0 0 0 4 0 7 3 0 0 0 0 7 0 0 -2 0 1 0 0 0 0 0 0 0 0 0 0 0 0 5 0 0 0 1 0 0 0 0 0 -5 0 3 0 0 0 0 0 0 0 3 4 0 0 0 0 0 0 -1 0 0 0 0 0 0 0 0 0 3 3 0 0 1 0 0 0 0 -5 -5 3 0 0 0 0 0 0 0 0 0 1 0 0 0 0 4 0 0 -6 0 -5 -4 -1 0 0 0 0 0 0 0 0 3 0 -2 -7 0 2 0 0 0 0 -14 9 0 0 0 -1 -4 0 0 1 -3 0 0 0 5 -3 0 0 0 -1 1 0 5 0 0 0 0 0 0 0 0 0 0 0 0 0 0 0 0 0 0 0 0 0 0 0 0 0 0 
-10 -9 -1 0 0 -1 0 0 0 -3 0 0 1 0 1 0 0 0 0 0 0 0 0 -1 0 0 0 0 0 0 0 0 0 0 0 0 0 0 0 0 0 0 1 0 0 0 0 0 0 0 0 0 0 0 0 0 0 0 0 0 0 0 0 0 0 0 0 0 0 0 0 0 0 0 0 0 0 0 0 0 1 0 0 0 0 0 0 0 0 0 0 -1 0 0 0 0 0 -8 0 0 0 0 0 0 0 0 0 0 0 0 0 0 0 0 0 0 0 0 0 0 0 2 0 0 0 0 0 0 0 0 0 -8 0 0 5 0 0 0 0 0 0 0 0 0 0 0 0 0 0 0 0 0 0 -8 0 9 0 0 0 0 0 0 0 0 0 0 0 0 0 0 0 0 0 0 0 0 0 0 0 0 0 -5 0 0 0 0 0 0 0 0 0 0 0 1 0 0 0 0 5 0 0 0 0 -5 0 0 0 0 0 0 0 0 0 0 0 0 0 0 0 0 -1 0 0 0 -6 1 0 0 0 0 -9 0 0 0 0 0 0 0 0 0 0 0 0 -1 0 0 5 0 0 0 0 0 0 0 0 0 0 0 0 0 0 0 0 0 0 0 0 0 0 0 0 0 0 
-4 -3 -1 0 0 -1 0 -3 -2 0 0 0 0 0 0 0 0 -3 0 0 0 0 0 -1 0 0 0 0 0 0 0 0 0 0 0 0 0 0 0 0 0 0 0 0 0 0 0 0 0 0 -12 0 0 0 0 0 0 0 0 0 0 0 0 0 0 0 0 0 0 0 0 0 0 12 0 0 0 0 0 0 0 0 0 0 0 0 0 0 0 0 0 0 0 0 0 0 0 0 0 0 3 0 0 0 -2 0 0 0 0 0 0 0 0 0 0 0 0 0 0 0 0 1 0 0 0 0 0 0 0 0 0 0 0 0 12 0 0 0 0 0 0 0 0 0 0 0 0 0 0 0 0 0 0 0 0 0 0 0 0 0 0 0 0 0 0 0 0 0 0 0 0 0 0 0 0 0 0 0 0 0 0 0 0 0 0 0 0 0 0 0 0 0 0 1 0 0 0 0 0 0 0 0 0 0 0 0 0 0 0 0 0 0 0 0 -3 2 0 0 0 0 0 0 0 0 -12 0 0 0 0 0 0 0 0 0 0 0 0 0 0 0 0 0 0 -1 0 0 0 0 0 0 0 0 0 0 0 0 0 0 0 0 0 0 0 0 0 0 0 0 0 0 0 0 0 
-11 -4 0 -3 0 0 -3 -3 0 0 0 0 0 0 0 0 0 0 -1 0 0 0 0 0 -3 0 0 -2 0 0 0 0 0 0 0 0 0 0 -3 0 0 0 0 0 0 0 -1 0 0 0 0 0 0 0 0 0 0 0 0 0 0 0 0 0 0 0 0 0 0 0 0 0 0 0 0 0 0 0 0 0 0 0 0 0 0 0 0 0 0 0 0 0 0 0 -1 -8 0 0 0 0 0 0 0 0 0 0 -2 0 1 0 0 0 0 0 0 0 0 0 0 0 0 0 0 0 0 0 0 0 0 0 0 0 0 0 0 0 0 0 0 0 0 0 0 -3 -4 0 0 0 0 0 -14 0 0 0 0 1 0 0 0 0 0 0 0 0 0 0 0 0 0 0 0 0 0 0 0 0 0 0 0 0 0 0 -4 0 0 2 0 0 0 0 -1 0 0 0 0 0 0 0 0 0 0 0 0 0 0 0 0 0 0 -1 0 0 0 0 0 0 -2 0 0 0 0 0 0 0 0 0 0 0 5 0 -1 0 0 0 0 0 0 6 -2 0 -2 -1 0 0 0 0 0 0 0 0 0 0 0 0 0 0 0 0 0 0 0 0 0 0 0 0 0 0 0 0 0 0 0 
0 0 0 0 0 0 0 0 0 -1 0 0 0 0 0 0 -6 0 0 0 0 0 0 -1 0 0 0 0 0 0 0 0 0 -6 0 -6 0 0 0 0 0 0 6 0 0 0 0 0 0 0 0 0 0 0 0 0 0 0 0 0 0 0 0 0 0 0 0 0 0 0 0 0 -7 0 0 0 0 0 0 0 6 0 0 0 0 0 0 -1 0 0 0 0 0 0 0 0 0 0 0 0 0 0 0 0 0 0 0 0 0 0 0 0 0 0 0 0 0 0 0 0 0 1 0 0 0 0 0 0 0 0 0 0 0 0 0 0 0 0 -1 0 0 0 0 0 0 0 0 0 0 0 0 0 0 0 0 0 0 0 0 0 0 0 0 0 0 0 0 0 0 0 0 0 0 0 0 0 0 0 0 0 0 0 0 0 0 0 0 0 -1 0 0 0 0 1 0 0 0 0 0 0 0 0 0 0 -1 0 0 0 0 0 0 0 0 0 0 0 0 0 0 0 0 0 0 0 -7 7 1 0 0 0 0 0 0 0 0 0 0 0 0 0 0 0 0 -1 0 0 0 0 0 0 0 0 0 0 0 0 0 0 0 0 0 0 0 0 0 0 0 0 0 0 0 0 0 
0 0 0 0 0 0 0 0 0 0 0 0 0 0 0 0 -1 0 0 0 0 0 0 0 0 0 0 0 0 0 0 0 0 -1 0 0 0 0 0 0 0 0 1 0 0 0 0 0 0 0 0 0 0 0 0 0 0 0 0 0 0 0 0 0 0 0 0 0 0 0 0 0 0 0 0 0 0 0 0 0 1 0 0 0 0 0 0 0 0 0 0 0 0 0 0 0 0 0 0 0 0 0 0 0 0 0 0 0 0 0 0 0 0 0 0 0 0 0 0 0 0 0 0 0 0 0 0 0 0 0 0 0 0 0 9 0 0 0 0 0 0 0 0 0 0 0 0 0 0 0 0 0 0 0 0 0 0 0 0 0 0 0 0 0 0 0 0 0 0 0 0 0 0 0 0 0 0 0 0 0 0 0 0 0 0 0 0 0 0 0 0 0 0 0 0 0 0 0 0 0 0 -1 0 0 0 0 0 0 0 0 0 0 0 0 0 0 0 0 0 0 0 0 0 0 -10 1 0 0 0 0 0 0 0 0 0 0 0 0 0 0 0 0 0 0 0 0 0 0 0 0 0 0 0 0 0 0 0 0 0 0 0 0 0 0 0 0 0 0 0 0 0 0 0 
#OUTPUT END
Model has been successfully processed
